interdiction/MCDM/NO_CORR/GEN_FROM_60/15_ITEMS_1000_GEN/K5015W08.KNP.mps
NAME          BLANK   
ROWS
 N  OBJROW
 L  R0000000
COLUMNS
    C0000000  OBJROW     -918.         R0000000  410.        
    C0000001  OBJROW     -627.         R0000000  650.        
    C0000002  OBJROW     -432.         R0000000  519.        
    C0000003  OBJROW     -265.         R0000000  599.        
    C0000004  OBJROW     -225.         R0000000  538.        
    C0000005  OBJROW     -955.         R0000000  878.        
    C0000006  OBJROW     -918.         R0000000  381.        
    C0000007  OBJROW     -279.         R0000000  891.        
    C0000008  OBJROW     -323.         R0000000  927.        
    C0000009  OBJROW     -494.         R0000000  675.        
    C0000010  OBJROW     -837.         R0000000  504.        
    C0000011  OBJROW     -961.         R0000000  896.        
    C0000012  OBJROW     -802.         R0000000  739.        
    C0000013  OBJROW     -882.         R0000000  534.        
    C0000014  OBJROW     -600.         R0000000  482.        
RHS
    RHS       R0000000  15314.      
BOUNDS
 BV BOUND     C0000000  1.          
 BV BOUND     C0000001  1.          
 BV BOUND     C0000002  1.          
 BV BOUND     C0000003  1.          
 BV BOUND     C0000004  1.          
 BV BOUND     C0000005  1.          
 BV BOUND     C0000006  1.          
 BV BOUND     C0000007  1.          
 BV BOUND     C0000008  1.          
 BV BOUND     C0000009  1.          
 BV BOUND     C0000010  1.          
 BV BOUND     C0000011  1.          
 BV BOUND     C0000012  1.          
 BV BOUND     C0000013  1.          
 BV BOUND     C0000014  1.          
ENDATA
