data/MCDM/NO_CORR/GEN_FROM_60/15_ITEMS_1000_GEN/K5015W08.KNP.txt
N 15
M 16
LC 15
LC 16
LC 17
LC 18
LC 19
LC 20
LC 21
LC 22
LC 23
LC 24
LC 25
LC 26
LC 27
LC 28
LC 29
LR 1
LR 2
LR 3
LR 4
LR 5
LR 6
LR 7
LR 8
LR 9
LR 10
LR 11
LR 12
LR 13
LR 14
LR 15
LR 16
LO -918
LO -627
LO -432
LO -265
LO -225
LO -955
LO -918
LO -279
LO -323
LO -494
LO -837
LO -961
LO -802
LO -882
LO -600
OS 1
IC 885
IC 447
IC 746
IC 664
IC 915
IC 967
IC 963
IC 222
IC 486
IC 783
IC 866
IC 429
IC 198
IC 697
IC 944
IB 5106
